num_bands       = 460
num_wann        = 390
num_iter        = 5000
conv_tol        = 1.0d-8
conv_window     = 5
num_dump_cycles = 200

dis_win_max     = 15.0
dis_froz_max    = 1.0
dis_num_iter    = 5000
dis_conv_tol    = 1.0d-8
dis_conv_window = 5
dis_mix_ratio   = 0.5
guiding_centres = .true.

translate_home_cell = .true.

num_print_cycles = 10

iprint = 5

## TRANSPORT ##

#restart                 = transport

#transport               = .true.
#transport_mode          =  lcr
#write_info              = .true.
#write_xyz               = .true.
#tran_write_ht           = .true.
#tran_group_threshold    =  0.155
#tran_easy_fix           = .true.
#tran_win_min            = -20.0
#tran_win_max            =  7.0
#tran_energy_step        =  0.01
#tran_num_ll             =  90 
#tran_num_cell_ll        =  3
#tran_num_bandc          =  120
#one_dim_axis            =  z
#fermi_energy            = -1.7658
#translation_centre_frac = 0.0 0.0 0.47
#dist_cutoff_mode        = one_dim
#dist_cutoff             = 7.393

## SYSTEM PARAMETERS ##

begin unit_cell_cart
ang
 14.0  0.00  0.00
 0.00  14.0  0.00
 0.00  0.00 32.0333
end unit_cell_cart

begin atoms_cart 
Ang
C        1.604762521   1.354368461  -0.003489032
C        1.608321274   1.357956648   2.464213769
C        1.599965801   1.351818867   4.926660665
C        1.604270758   1.350036958   7.390124898
C        1.593712005   1.347593238   9.856471526
C        1.584753578   1.362375848  12.309353125
C        1.576282390   1.336902023  14.785105194
C        1.583902007   1.362143752  17.260270710
C        1.593501784   1.347636454  19.712508009
C        1.603881736   1.349716464  22.179199594
C        1.599826673   1.351820650  24.641667664
C        1.608599654   1.358247725  27.105097660
C        1.604250239   1.353922958  29.572179686
C       -0.369907787   2.062928871   1.231829141
C       -0.371131420   2.067062412   3.690739722
C       -0.375486516   2.059411596   6.158000521
C       -0.380843822   2.048321139   8.611385392
C       -0.379664706   2.079896974  11.072573232
C       -0.367276359   2.134166754  13.526519563
C       -0.367422673   2.134121446  16.042011606
C       -0.380215465   2.080062206  18.496956045
C       -0.381117905   2.047660937  20.957296969
C       -0.375777032   2.059916812  23.411059576
C       -0.371009044   2.066525011  25.878349436
C       -0.370053381   2.063271418  28.336551445
C       -0.370484484   2.068534673  30.801352424
C       -1.973602643   0.710478463  -0.003357617
C       -1.975522167   0.711188097   2.463325777
C       -1.971306505   0.704361751   4.921740248
C       -1.990300529   0.706877967   7.382722385
C       -1.983776617   0.705370016   9.852906307
C       -1.936226061   0.703543549  12.313604275
C       -1.888667521   0.706840884  14.784289174
C       -1.935966872   0.703410761  17.254902283
C       -1.984663135   0.705445194  19.715802996
C       -1.990324620   0.706769377  22.186737766
C       -1.971309361   0.704314784  24.646621767
C       -1.975964524   0.711325709  27.105988989
C       -1.973033684   0.710320545  29.572037964
C       -1.598675635  -1.354053459   1.231767031
C       -1.601128191  -1.359117488   3.689348011
C       -1.605316986  -1.360895241   6.157673554
C       -1.605387766  -1.356418066   8.614273944
C       -1.623414755  -1.368434574  11.080011943
C       -1.603732611  -1.364606629  13.547173290
C       -1.603958221  -1.364757583  16.021005554
C       -1.623740145  -1.368431961  18.489223136
C       -1.605410868  -1.356129398  20.954285927
C       -1.605900885  -1.361339656  23.411434557
C       -1.600794948  -1.358694931  25.879821546
C       -1.598966340  -1.354288883  28.336630029
C       -1.604952626  -1.356379492  30.801330851
C        0.373905340  -2.064564657  -0.003125761
C        0.375254026  -2.068945202   2.464022434
C        0.375404802  -2.062645583   4.924208862
C        0.373536172  -2.072838094   7.386250302
C        0.359538940  -2.073262620   9.855139912
C        0.345393029  -2.102423042  12.309191389
C        0.341361907  -2.130135984  14.784585757
C        0.344836744  -2.102337882  17.259677654
C        0.359353839  -2.073777543  19.713873475
C        0.373196651  -2.072542370  22.183190884
C        0.375290776  -2.062575396  24.644202801
C        0.375302343  -2.069336730  27.105355710
C        0.373713509  -2.063938895  29.571830617
C        1.975041801  -0.709200457   1.232326599
C        1.977913544  -0.709914629   3.691944421
C        1.980132864  -0.714888598   6.162154194
C        1.971151649  -0.715489685   8.622482886
C        1.958759619  -0.723714450  11.093926385
C        1.909134004  -0.731539931  13.558132952
C        1.909111277  -0.731621186  16.011315217
C        1.958412653  -0.724048798  18.475679731
C        1.970615724  -0.715447855  20.946173635
C        1.980490745  -0.715070680  23.407026070
C        1.977273555  -0.709750649  25.877169366
C        1.975358355  -0.709283723  28.336104828
C        1.980846152  -0.713262475  30.801350625
H        0.820622520   3.429010757  14.784322941
C        1.615048005  -1.344788562  -0.002682508
C        1.621679913  -1.346459316   2.465029281
C        1.609404068  -1.341687206   4.926420035
C        1.626828360  -1.353872042   7.392419856
C        1.597891398  -1.345801067   9.865739201
C        1.569876448  -1.359816657  12.315407634
C        1.564751116  -1.380979170  14.784874562
C        1.569136777  -1.359881021  17.253650060
C        1.598004841  -1.346363591  19.703484424
C        1.626243102  -1.353635571  22.176960855
C        1.609197019  -1.341679533  24.641982863
C        1.622021310  -1.346776846  27.104329132
C        1.614420906  -1.344277128  29.571417171
C        1.968487639   0.722174351   1.232735474
C        1.975959711   0.728277956   3.692968352
C        1.971623739   0.721595610   6.162345192
C        1.964176128   0.715176055   8.622834320
C        1.962710717   0.730549652  11.100449721
C        1.881063097   0.699957501  13.569835588
C        1.880934018   0.699958889  16.000074701
C        1.962255874   0.730206396  18.469131541
C        1.963507010   0.714878755  20.945724573
C        1.972107933   0.721751896  23.406775451
C        1.975229401   0.728050377  25.876062106
C        1.968851942   0.722317603  28.335671675
C        1.980689165   0.728664430  30.801353185
C        0.359825530   2.067137139  -0.003275584
C        0.359348914   2.076818370   2.464026153
C        0.357058735   2.059296521   4.926201162
C        0.351711147   2.063806616   7.386702437
C        0.351081269   2.051917605   9.846181458
C        0.354505262   2.122216061  12.293280378
C        0.432363352   2.396212286  14.784628148
C        0.354031283   2.121808904  17.276178812
C        0.350794969   2.052100995  19.722564484
C        0.351422919   2.063300749  22.182621151
C        0.356985321   2.059257334  24.642102416
C        0.359414620   2.077302424  27.105271187
C        0.359643708   2.066403669  29.571976128
C       -1.606440608   1.341481470   1.232213652
C       -1.614726261   1.344644434   3.690533230
C       -1.620129076   1.340169272   6.158123519
C       -1.622073426   1.335495387   8.615501971
C       -1.620170426   1.343642933  11.082739065
C       -1.520065116   1.337648531  13.544439940
C       -1.519927249   1.337682293  16.023790624
C       -1.620744517   1.343665687  18.486477536
C       -1.622106089   1.335131714  20.953065858
C       -1.620796956   1.340615716  23.410941258
C       -1.614180026   1.344166285  25.878539885
C       -1.606822815   1.341799438  28.336175070
C       -1.620709089   1.348721630  30.801357149
C       -1.969051220  -0.724179088  -0.002826108
C       -1.973923198  -0.730289358   2.464443478
C       -1.962111170  -0.725122751   4.923325957
C       -1.984986986  -0.735295293   7.382992112
C       -1.976644481  -0.727244012   9.853771638
C       -1.962917654  -0.727561643  12.315761115
C       -1.937507442  -0.707472075  14.784319387
C       -1.962604049  -0.727399514  17.252636901
C       -1.977441099  -0.727363557  19.714910855
C       -1.984875057  -0.735217044  22.186437347
C       -1.962177580  -0.725086178  24.645019767
C       -1.974441712  -0.730422752  27.104873002
C       -1.968375119  -0.723910671  29.571533800
C       -0.355641815  -2.063106838   1.232235522
C       -0.353782743  -2.076160224   3.691507285
C       -0.353835935  -2.073120090   6.161370533
C       -0.362560711  -2.063265032   8.616754590
C       -0.379853741  -2.099077454  11.078948031
C       -0.387709191  -2.108991418  13.548960723
C       -0.388083542  -2.109247467  16.019530143
C       -0.380193269  -2.099196258  18.490484777
C       -0.362829449  -2.062837236  20.951850127
C       -0.354148661  -2.073796300  23.407837170
C       -0.353753300  -2.075433158  25.877638861
C       -0.355783458  -2.063486244  28.336203599
C       -0.355921580  -2.076831243  30.801375741
end atoms_cart 
 
begin projections 
Ang
c=  1.7866251,  1.0382714,  0.6146232:s 
c=  0.9822940,  1.7107528, -0.0033823:s 
c=  1.7927258,  1.0415164, -0.6177179:s 
c=  1.6047625,  1.3543685, -0.0034890:pz:z=-0.64,-0.77,-0.01 
c=  1.7884045,  1.0400655,  1.8484746:s 
c=  1.7921405,  1.0431173,  3.0785911:s 
c=  0.9838351,  1.7173875,  2.4641200:s 
c=  1.6083213,  1.3579566,  2.4642138:pz:z=-0.64,-0.77,0.00 
c=  1.7879628,  1.0400484,  4.3098145:s 
c=  1.7857948,  1.0367072,  5.5445029:s 
c=  0.9785123,  1.7055577,  4.9264309:s 
c=  1.5999658,  1.3518189,  4.9266607:pz:z=-0.64,-0.77,-0.00 
c=  1.7879472,  1.0358163,  6.7762350:s 
c=  1.7842234,  1.0326065,  8.0064796:s 
c=  0.9779910,  1.7069218,  7.3884137:s 
c=  1.6042708,  1.3500370,  7.3901249:pz:z=-0.64,-0.77,-0.00 
c=  1.7789441,  1.0313846,  9.2396529:s 
c=  1.7782114,  1.0390714, 10.4784606:s 
c=  0.9723966,  1.6997554,  9.8513265:s 
c=  1.5937120,  1.3475932,  9.8564715:pz:z=-0.64,-0.77,0.00 
c=  1.7737321,  1.0464627, 11.7049014:s 
c=  1.7329083,  1.0311667, 12.9395944:s 
c=  0.9696294,  1.7422960, 12.3013168:s 
c=  1.5847536,  1.3623758, 12.3093531:pz:z=-0.67,-0.74,-0.03 
c=  1.7286727,  1.0184298, 14.1774704:s 
c=  1.7286082,  1.0184305, 15.3925899:s 
c=  1.0043229,  1.8665572, 14.7848667:s 
c=  1.5762824,  1.3369020, 14.7851052:pz:z=-0.76,-0.65,-0.00 
c=  1.7324180,  1.0310513, 16.6301727:s 
c=  1.7730789,  1.0461751, 17.8647011:s 
c=  0.9689666,  1.7419763, 17.2682248:s 
c=  1.5839020,  1.3621438, 17.2602707:pz:z=-0.67,-0.74,0.03 
c=  1.7778788,  1.0389214, 19.0908198:s 
c=  1.7785044,  1.0312576, 20.3291163:s 
c=  0.9721484,  1.6998687, 19.7175362:s 
c=  1.5935018,  1.3476365, 19.7125080:pz:z=-0.64,-0.77,-0.00 
c=  1.7836944,  1.0322976, 21.5624621:s 
c=  1.7879948,  1.0357342, 22.7929875:s 
c=  0.9776523,  1.7065086, 22.1809104:s 
c=  1.6038817,  1.3497165, 22.1791996:pz:z=-0.64,-0.77,0.00 
c=  1.7859673,  1.0367863, 24.0242216:s 
c=  1.7875280,  1.0399355, 25.2588649:s 
c=  0.9784060,  1.7055390, 24.6418850:s 
c=  1.5998267,  1.3518207, 24.6416677:pz:z=-0.64,-0.77,0.00 
c=  1.7919145,  1.0431491, 26.4905799:s 
c=  1.7887258,  1.0402827, 27.7203847:s 
c=  0.9840071,  1.7177751, 27.1051844:s 
c=  1.6085997,  1.3582477, 27.1050977:pz:z=-0.64,-0.77,-0.00 
c=  1.7865511,  1.0381203, 28.9539257:s 
c=  1.7924697,  1.0412937, 30.1867664:s 
c=  0.9819470,  1.7101633, 29.5720779:s 
c=  1.6042502,  1.3539230, 29.5721797:pz:z=-0.64,-0.77,0.01 
c= -0.0050411,  2.0650330,  0.6142768:s 
c= -0.0052794,  2.0698736,  1.8479276:s 
c= -0.9881742,  1.7022052,  1.2320214:s 
c= -0.3699078,  2.0629289,  1.2318291:pz:z=0.35,-0.94,0.00 
c= -0.0058913,  2.0719404,  3.0773829:s 
c= -0.0070363,  2.0631795,  4.3084704:s 
c= -0.9929288,  1.7058534,  3.6906365:s 
c= -0.3711314,  2.0670624,  3.6907397:pz:z=0.34,-0.94,-0.01 
c= -0.0092139,  2.0593541,  5.5421008:s 
c= -0.0118877,  2.0616091,  6.7723515:s 
c= -0.9978078,  1.6997904,  6.1580620:s 
c= -0.3754865,  2.0594116,  6.1580005:pz:z=0.34,-0.94,0.00 
c= -0.0145663,  2.0560639,  7.9990439:s 
c= -0.0148813,  2.0501194,  9.2287834:s 
c= -1.0014586,  1.6919083,  8.6134437:s 
c= -0.3808438,  2.0483211,  8.6113854:pz:z=0.34,-0.94,-0.00 
c= -0.0142917,  2.0659073, 10.4593773:s 
c= -0.0125797,  2.1010565, 11.6829268:s 
c= -0.9999176,  1.7117700, 11.0776561:s 
c= -0.3796647,  2.0798970, 11.0725732:pz:z=0.35,-0.94,0.03 
c= -0.0063855,  2.1281914, 12.9099000:s 
c=  0.0325435,  2.2651895, 14.1555739:s 
c= -0.9436707,  1.7359076, 13.5354798:s 
c= -0.3672764,  2.1341668, 13.5265196:pz:z=0.43,-0.90,0.09 
c=  0.0324703,  2.2651669, 15.4133199:s 
c= -0.0066957,  2.1279652, 16.6590952:s 
c= -0.9436750,  1.7359019, 16.0329011:s 
c= -0.3674227,  2.1341214, 16.0420116:pz:z=0.43,-0.90,-0.09 
c= -0.0130921,  2.1009356, 17.8865674:s 
c= -0.0147102,  2.0660816, 19.1097603:s 
c= -1.0004800,  1.7118639, 18.4917168:s 
c= -0.3802155,  2.0800622, 18.4969560:pz:z=0.35,-0.94,-0.03 
c= -0.0151615,  2.0498810, 20.3399307:s 
c= -0.0148475,  2.0554808, 21.5699591:s 
c= -1.0016120,  1.6913963, 20.9551814:s 
c= -0.3811179,  2.0476609, 20.9572970:pz:z=0.34,-0.94,0.00 
c= -0.0121771,  2.0616088, 22.7968404:s 
c= -0.0093959,  2.0595871, 24.0265810:s 
c= -0.9982870,  1.7002663, 23.4110004:s 
c= -0.3757770,  2.0599168, 23.4110596:pz:z=0.34,-0.94,-0.00 
c= -0.0070119,  2.0628912, 25.2602259:s 
c= -0.0057972,  2.0719137, 26.4918103:s 
c= -0.9925945,  1.7053456, 25.8784447:s 
c= -0.3710090,  2.0665250, 25.8783494:pz:z=0.34,-0.94,0.01 
c= -0.0053194,  2.0702869, 27.7209113:s 
c= -0.0052048,  2.0648375, 28.9542638:s 
c= -0.9884381,  1.7025354, 28.3363633:s 
c= -0.3700534,  2.0632714, 28.3365514:pz:z=0.35,-0.94,-0.00 
c= -0.0054204,  2.0674692, 30.1866643:s 
c= -0.9955968,  1.7086282, 30.8013548:s 
c= -0.0053295,  2.0678359, 31.4156884:s 
c= -0.3704845,  2.0685347, 30.8013524:pz:z=-0.34,0.94,-0.00 
c= -1.7900216,  1.0259800,  0.6144280:s 
c= -1.9713269, -0.0068503, -0.0030919:s 
c= -1.7971559,  1.0296000, -0.6176502:s 
c= -1.9736026,  0.7104785, -0.0033576:pz:z=0.99,-0.17,-0.01 
c= -1.7909814,  1.0263348,  1.8477697:s 
c= -1.7951242,  1.0279163,  3.0769295:s 
c= -1.9747227, -0.0095506,  2.4638846:s 
c= -1.9755222,  0.7111881,  2.4633258:pz:z=0.98,-0.17,0.00 
c= -1.7930164,  1.0245031,  4.3061367:s 
c= -1.7957178,  1.0222655,  5.5399319:s 
c= -1.9667088, -0.0103805,  4.9225331:s 
c= -1.9713065,  0.7043618,  4.9217402:pz:z=0.99,-0.16,0.00 
c= -1.8052148,  1.0235236,  6.7704230:s 
c= -1.8061870,  1.0211867,  7.9991122:s 
c= -1.9876438, -0.0142087,  7.3828572:s 
c= -1.9903005,  0.7068780,  7.3827224:pz:z=0.98,-0.17,0.00 
c= -1.8029250,  1.0204327,  9.2342041:s 
c= -1.8019735,  1.0245065, 10.4678227:s 
c= -1.9802105, -0.0109370,  9.8533390:s 
c= -1.9837766,  0.7053700,  9.8529063:pz:z=0.99,-0.17,-0.00 
c= -1.7781982,  1.0235932, 11.6981717:s 
c= -1.7281456,  1.0205960, 12.9290221:s 
c= -1.9495719, -0.0120090, 12.3146827:s 
c= -1.9362261,  0.7035435, 12.3136043:pz:z=0.98,-0.19,-0.04 
c= -1.7043663,  1.0222447, 14.1643646:s 
c= -1.7042974,  1.0222616, 15.4040399:s 
c= -1.9130875, -0.0003156, 14.7843043:s 
c= -1.8886675,  0.7068409, 14.7842892:pz:z=0.98,-0.20,-0.00 
c= -1.7279471,  1.0205465, 16.6393465:s 
c= -1.7783557,  1.0235382, 17.8706899:s 
c= -1.9492855, -0.0119944, 17.2537696:s 
c= -1.9359669,  0.7034108, 17.2549023:pz:z=0.98,-0.19,0.04 
c= -1.8027038,  1.0245554, 19.1011403:s 
c= -1.8033846,  1.0202885, 20.3344344:s 
c= -1.9810521, -0.0109592, 19.7153569:s 
c= -1.9846631,  0.7054452, 19.7158030:pz:z=0.99,-0.17,-0.00 
c= -1.8062154,  1.0209505, 21.5699018:s 
c= -1.8055608,  1.0236925, 22.7988395:s 
c= -1.9875998, -0.0142238, 22.1865876:s 
c= -1.9903246,  0.7067694, 22.1867378:pz:z=0.98,-0.17,-0.00 
c= -1.7960532,  1.0224652, 24.0287815:s 
c= -1.7927447,  1.0242405, 25.2625808:s 
c= -1.9667435, -0.0103857, 24.6458208:s 
c= -1.9713094,  0.7043148, 24.6466218:pz:z=0.99,-0.16,-0.00 
c= -1.7950723,  1.0277460, 26.4922644:s 
c= -1.7913937,  1.0265626, 27.7210820:s 
c= -1.9752031, -0.0095485, 27.1054310:s 
c= -1.9759645,  0.7113257, 27.1059890:pz:z=0.98,-0.17,-0.00 
c= -1.7899282,  1.0260600, 28.9541065:s 
c= -1.7968714,  1.0295211, 30.1866976:s 
c= -1.9707044, -0.0067951, 29.5717859:s 
c= -1.9730337,  0.7103205, 29.5720380:pz:z=0.99,-0.17,0.01 
c= -1.7838634, -1.0391163,  0.6144705:s 
c= -1.7862994, -1.0421714,  1.8481053:s 
c= -0.9771587, -1.7085801,  1.2320013:s 
c= -1.5986756, -1.3540535,  1.2317670:pz:z=0.64,0.77,0.00 
c= -1.7875257, -1.0447034,  3.0768957:s 
c= -1.7816197, -1.0421201,  4.3063370:s 
c= -0.9774555, -1.7176389,  3.6904276:s 
c= -1.6011282, -1.3591175,  3.6893480:pz:z=0.64,0.77,-0.00 
c= -1.7837141, -1.0430090,  5.5404998:s 
c= -1.7951520, -1.0480953,  6.7703328:s 
c= -0.9795765, -1.7170077,  6.1595220:s 
c= -1.6053170, -1.3608952,  6.1576736:pz:z=0.64,0.77,0.01 
c= -1.7951874, -1.0458567,  7.9986330:s 
c= -1.7910161, -1.0418310,  9.2340228:s 
c= -0.9839742, -1.7098415,  8.6155143:s 
c= -1.6053878, -1.3564181,  8.6142739:pz:z=0.64,0.77,-0.00 
c= -1.8000296, -1.0478393, 10.4668918:s 
c= -1.7931662, -1.0479981, 11.6978865:s 
c= -1.0016342, -1.7337560, 11.0794800:s 
c= -1.6234148, -1.3684346, 11.0800119:pz:z=0.65,0.76,-0.00 
c= -1.7833251, -1.0460841, 12.9314672:s 
c= -1.7706200, -1.0360394, 14.1657463:s 
c= -0.9957209, -1.7367990, 13.5480670:s 
c= -1.6037326, -1.3646066, 13.5471733:pz:z=0.66,0.75,-0.01 
c= -1.7707328, -1.0361148, 15.4026625:s 
c= -1.7832811, -1.0460785, 16.6368212:s 
c= -0.9960209, -1.7370025, 16.0202678:s 
c= -1.6039582, -1.3647576, 16.0210056:pz:z=0.67,0.75,0.01 
c= -1.7931721, -1.0479157, 17.8709300:s 
c= -1.8005906, -1.0478978, 19.1020670:s 
c= -1.0019667, -1.7338141, 18.4898540:s 
c= -1.6237401, -1.3684320, 18.4892231:pz:z=0.65,0.76,0.00 
c= -1.7914260, -1.0417465, 20.3345984:s 
c= -1.7951430, -1.0456732, 21.5703616:s 
c= -0.9841202, -1.7094833, 20.9530680:s 
c= -1.6054109, -1.3561294, 20.9542859:pz:z=0.64,0.77,0.00 
c= -1.7953880, -1.0482783, 22.7989360:s 
c= -1.7840392, -1.0432129, 24.0282272:s 
c= -0.9800248, -1.7175680, 23.4096359:s 
c= -1.6059009, -1.3613397, 23.4114346:pz:z=0.64,0.77,-0.01 
c= -1.7814863, -1.0418906, 25.2624207:s 
c= -1.7876183, -1.0445588, 26.4923473:s 
c= -0.9772741, -1.7170640, 25.8787302:s 
c= -1.6007949, -1.3586949, 25.8798215:pz:z=0.64,0.77,0.00 
c= -1.7867040, -1.0423558, 27.7207515:s 
c= -1.7836707, -1.0390998, 28.9540819:s 
c= -0.9773749, -1.7088876, 28.3364168:s 
c= -1.5989663, -1.3542889, 28.3366300:pz:z=0.64,0.77,-0.00 
c= -1.7866639, -1.0401451, 30.1864323:s 
c= -0.9804371, -1.7166054, 30.8013533:s 
c= -1.7870019, -1.0402793, 31.4159024:s 
c= -1.6049526, -1.3563795, 30.8013309:pz:z=-0.64,-0.77,-0.00 
c=  0.9944767, -1.7046766, -0.0029041:s 
c=  0.0091318, -2.0638357,  0.6145549:s 
c=  0.0089919, -2.0706980, -0.6175250:s 
c=  0.3739053, -2.0645647, -0.0031258:pz:z=0.35,-0.94,0.01 
c=  0.9984670, -1.7077023,  2.4645259:s 
c=  0.0098061, -2.0660260,  1.8481290:s 
c=  0.0107356, -2.0725527,  3.0777649:s 
c=  0.3752540, -2.0689452,  2.4640224:pz:z=-0.34,0.94,0.01 
c=  0.9924044, -1.7021664,  4.9253144:s 
c=  0.0108110, -2.0694029,  4.3078581:s 
c=  0.0107844, -2.0678828,  5.5427897:s 
c=  0.3754048, -2.0626456,  4.9242089:pz:z=-0.35,0.94,-0.00 
c=  1.0001823, -1.7133551,  7.3893351:s 
c=  0.0098501, -2.0729791,  6.7738104:s 
c=  0.0054877, -2.0680516,  8.0015024:s 
c=  0.3735362, -2.0728381,  7.3862503:pz:z=-0.34,0.94,-0.00 
c=  0.9787152, -1.7095318,  9.8604396:s 
c= -0.0015109, -2.0682638,  9.2359473:s 
c= -0.0101574, -2.0861700, 10.4670440:s 
c=  0.3595389, -2.0732626,  9.8551399:pz:z=-0.35,0.94,0.01 
c=  0.9576347, -1.7311198, 12.3122995:s 
c= -0.0172304, -2.1007502, 11.6940697:s 
c= -0.0211581, -2.1057072, 12.9290761:s 
c=  0.3453930, -2.1024230, 12.3091914:pz:z=-0.36,0.93,0.00 
c=  0.9530565, -1.7555576, 14.7847302:s 
c= -0.0231736, -2.1195637, 14.1667732:s 
c= -0.0233608, -2.1196917, 15.4020579:s 
c=  0.3413619, -2.1301360, 14.7845858:pz:z=-0.35,0.94,0.00 
c=  0.9569868, -1.7311095, 17.2566639:s 
c= -0.0216234, -2.1057927, 16.6396039:s 
c= -0.0176783, -2.1007671, 17.8750812:s 
c=  0.3448367, -2.1023379, 17.2596777:pz:z=-0.36,0.93,-0.00 
c=  0.9786793, -1.7100706, 19.7086789:s 
c= -0.0104197, -2.0864869, 19.1021791:s 
c= -0.0017378, -2.0683074, 20.3328618:s 
c=  0.3593538, -2.0737775, 19.7138735:pz:z=-0.35,0.94,-0.01 
c=  0.9997199, -1.7130890, 22.1800759:s 
c=  0.0051836, -2.0676898, 21.5675205:s 
c=  0.0095240, -2.0731693, 22.7955140:s 
c=  0.3731967, -2.0725424, 22.1831909:pz:z=-0.34,0.94,0.01 
c=  0.9922439, -1.7021275, 24.6430928:s 
c=  0.0105711, -2.0681858, 24.0260200:s 
c=  0.0107687, -2.0690043, 25.2609208:s 
c=  0.3752908, -2.0625754, 24.6442028:pz:z=-0.35,0.94,0.00 
c=  0.9986618, -1.7080568, 27.1048424:s 
c=  0.0107745, -2.0723849, 26.4914973:s 
c=  0.0097594, -2.0664115, 27.7207797:s 
c=  0.3753023, -2.0693367, 27.1053557:pz:z=-0.34,0.94,-0.00 
c=  0.9940672, -1.7041080, 29.5716239:s 
c=  0.0089650, -2.0637126, 28.9540171:s 
c=  0.0088960, -2.0703851, 30.1866032:s 
c=  0.3737135, -2.0639389, 29.5718306:pz:z=-0.35,0.94,0.01 
c=  1.7950449, -1.0269945,  0.6148220:s 
c=  1.7983609, -1.0278299,  1.8486779:s 
c=  1.9717647,  0.0064869,  1.2325310:s 
c=  1.9750418, -0.7092005,  1.2323266:pz:z=-0.99,0.17,0.00 
c=  1.7997967, -1.0281870,  3.0784869:s 
c=  1.7936588, -1.0258009,  4.3091822:s 
c=  1.9769366,  0.0091817,  3.6924564:s 
c=  1.9779135, -0.7099146,  3.6919444:pz:z=-0.99,0.17,-0.01 
c=  1.7947685, -1.0282879,  5.5442871:s 
c=  1.8034806, -1.0343803,  6.7772870:s 
c=  1.9758783,  0.0033535,  6.1622497:s 
c=  1.9801329, -0.7148886,  6.1621542:pz:z=-0.99,0.17,0.01 
c=  1.7989900, -1.0346809,  8.0074514:s 
c=  1.7845215, -1.0306454,  9.2441110:s 
c=  1.9676639, -0.0001568,  8.6226586:s 
c=  1.9711516, -0.7154897,  8.6224829:pz:z=-0.99,0.17,-0.01 
c=  1.7783255, -1.0347578, 10.4798328:s 
c=  1.7643180, -1.0417656, 11.7046670:s 
c=  1.9607352,  0.0034176, 11.0971881:s 
c=  1.9587596, -0.7237145, 11.0939264:pz:z=-0.98,0.18,-0.01 
c=  1.7395052, -1.0456783, 12.9367703:s 
c=  1.7369426, -1.0562596, 14.1715038:s 
c=  1.8950986, -0.0157912, 13.5639843:s 
c=  1.9091340, -0.7315399, 13.5581330:pz:z=-0.99,0.15,-0.00 
c=  1.7369312, -1.0563002, 15.3980949:s 
c=  1.7391240, -1.0457511, 16.6324826:s 
c=  1.8950226, -0.0158311, 16.0056950:s 
c=  1.9091113, -0.7316212, 16.0113152:pz:z=-0.99,0.15,0.00 
c=  1.7637747, -1.0419649, 17.8646649:s 
c=  1.7782087, -1.0352062, 19.0895821:s 
c=  1.9603343,  0.0030788, 18.4724056:s 
c=  1.9584127, -0.7240488, 18.4756797:pz:z=-0.98,0.18,0.01 
c=  1.7843103, -1.0309057, 20.3248290:s 
c=  1.7984294, -1.0345417, 21.5615672:s 
c=  1.9670614, -0.0002845, 20.9459491:s 
c=  1.9706157, -0.7154479, 20.9461736:pz:z=-0.99,0.17,0.01 
c=  1.8033669, -1.0343531, 22.7919935:s 
c=  1.7948439, -1.0283751, 24.0245045:s 
c=  1.9762993,  0.0033406, 23.4069008:s 
c=  1.9804907, -0.7150707, 23.4070261:pz:z=-0.99,0.17,-0.01 
c=  1.7932353, -1.0257151, 25.2595761:s 
c=  1.7996474, -1.0282637, 26.4907492:s 
c=  1.9762515,  0.0091499, 25.8766157:s 
c=  1.9772736, -0.7097506, 25.8771694:pz:z=-0.99,0.17,0.01 
c=  1.7986898, -1.0280303, 27.7202170:s 
c=  1.7948896, -1.0267804, 28.9537610:s 
c=  1.9721051,  0.0065169, 28.3358883:s 
c=  1.9753584, -0.7092837, 28.3361048:pz:z=-0.99,0.17,-0.00 
c=  1.7976335, -1.0287698, 30.1863839:s 
c=  1.9807677,  0.0077010, 30.8013519:s 
c=  1.7979471, -1.0290255, 31.4159841:s 
c=  1.9808462, -0.7132625, 30.8013506:pz:z=0.98,-0.17,-0.00 
c=  0.6121887,  2.8745611, 14.7844868:s 
c=  1.6150480, -1.3447886, -0.0026825:pz:z=-0.64,0.76,-0.00 
c=  1.6216799, -1.3464593,  2.4650293:pz:z=0.65,-0.76,-0.00 
c=  1.6094041, -1.3416872,  4.9264200:pz:z=0.64,-0.76,-0.00 
c=  1.6268284, -1.3538720,  7.3924199:pz:z=0.65,-0.76,0.00 
c=  1.5978914, -1.3458011,  9.8657392:pz:z=0.64,-0.76,0.00 
c=  1.5698764, -1.3598167, 12.3154076:pz:z=0.65,-0.76,0.01 
c=  1.5647511, -1.3809792, 14.7848746:pz:z=0.67,-0.75,-0.00 
c=  1.5691368, -1.3598810, 17.2536501:pz:z=0.65,-0.76,-0.01 
c=  1.5980048, -1.3463636, 19.7034844:pz:z=0.64,-0.76,-0.00 
c=  1.6262431, -1.3536356, 22.1769609:pz:z=0.65,-0.76,-0.00 
c=  1.6091970, -1.3416795, 24.6419829:pz:z=0.64,-0.76,0.00 
c=  1.6220213, -1.3467768, 27.1043291:pz:z=0.65,-0.76,0.00 
c=  1.6144209, -1.3442771, 29.5714172:pz:z=0.64,-0.76,-0.00 
c=  1.9684876,  0.7221744,  1.2327355:pz:z=0.98,0.18,-0.00 
c=  1.9759597,  0.7282780,  3.6929684:pz:z=0.98,0.18,0.00 
c=  1.9716237,  0.7215956,  6.1623452:pz:z=0.98,0.18,-0.00 
c=  1.9641761,  0.7151761,  8.6228343:pz:z=0.98,0.18,0.00 
c=  1.9627107,  0.7305497, 11.1004497:pz:z=0.98,0.18,0.00 
c=  1.8810631,  0.6999575, 13.5698356:pz:z=0.99,0.16,0.00 
c=  1.8809340,  0.6999589, 16.0000747:pz:z=0.99,0.16,-0.00 
c=  1.9622559,  0.7302064, 18.4691315:pz:z=0.98,0.18,-0.00 
c=  1.9635070,  0.7148788, 20.9457246:pz:z=0.98,0.18,-0.00 
c=  1.9721079,  0.7217519, 23.4067755:pz:z=0.98,0.18,0.00 
c=  1.9752294,  0.7280504, 25.8760621:pz:z=0.98,0.18,-0.00 
c=  1.9688519,  0.7223176, 28.3356717:pz:z=0.98,0.18,0.00 
c=  1.9806892,  0.7286644, 30.8013532:pz:z=-0.98,-0.18,0.00 
c=  0.3598255,  2.0671371, -0.0032756:pz:z=-0.34,-0.94,-0.00 
c=  0.3593489,  2.0768184,  2.4640262:pz:z=0.34,0.94,-0.00 
c=  0.3570587,  2.0592965,  4.9262012:pz:z=0.34,0.94,0.00 
c=  0.3517111,  2.0638066,  7.3867024:pz:z=0.33,0.94,0.00 
c=  0.3510813,  2.0519176,  9.8461815:pz:z=0.34,0.94,-0.01 
c=  0.3545053,  2.1222161, 12.2932804:pz:z=0.36,0.93,-0.02 
c=  0.3540313,  2.1218089, 17.2761788:pz:z=0.36,0.93,0.02 
c=  0.3507950,  2.0521010, 19.7225645:pz:z=0.34,0.94,0.01 
c=  0.3514229,  2.0633007, 22.1826212:pz:z=0.33,0.94,-0.01 
c=  0.3569853,  2.0592573, 24.6421024:pz:z=0.34,0.94,-0.00 
c=  0.3594146,  2.0773024, 27.1052712:pz:z=0.34,0.94,0.00 
c=  0.3596437,  2.0664037, 29.5719761:pz:z=0.34,0.94,-0.00 
c= -1.6064406,  1.3414815,  1.2322137:pz:z=-0.64,0.76,-0.00 
c= -1.6147263,  1.3446444,  3.6905332:pz:z=-0.65,0.76,0.00 
c= -1.6201291,  1.3401693,  6.1581235:pz:z=-0.64,0.76,-0.01 
c= -1.6220734,  1.3354954,  8.6155020:pz:z=-0.64,0.77,0.00 
c= -1.6201704,  1.3436429, 11.0827391:pz:z=-0.66,0.75,0.01 
c= -1.5200651,  1.3376485, 13.5444399:pz:z=-0.68,0.73,0.01 
c= -1.5199272,  1.3376823, 16.0237906:pz:z=-0.68,0.73,-0.01 
c= -1.6207445,  1.3436657, 18.4864775:pz:z=-0.66,0.75,-0.01 
c= -1.6221061,  1.3351317, 20.9530659:pz:z=-0.64,0.77,-0.00 
c= -1.6207970,  1.3406157, 23.4109413:pz:z=-0.64,0.76,0.01 
c= -1.6141800,  1.3441663, 25.8785399:pz:z=-0.65,0.76,-0.00 
c= -1.6068228,  1.3417994, 28.3361751:pz:z=-0.64,0.76,0.00 
c= -1.6207091,  1.3487216, 30.8013571:pz:z=-0.65,0.76,-0.00 
c= -1.9690512, -0.7241791, -0.0028261:pz:z=0.98,0.18,-0.00 
c= -1.9739232, -0.7302894,  2.4644435:pz:z=-0.98,-0.18,-0.00 
c= -1.9621112, -0.7251228,  4.9233260:pz:z=-0.98,-0.18,-0.00 
c= -1.9849870, -0.7352953,  7.3829921:pz:z=-0.98,-0.18,0.00 
c= -1.9766445, -0.7272440,  9.8537716:pz:z=-0.98,-0.18,-0.01 
c= -1.9629177, -0.7275616, 12.3157611:pz:z=-0.99,-0.15,0.01 
c= -1.9375074, -0.7074721, 14.7843194:pz:z=-0.99,-0.14,-0.00 
c= -1.9626040, -0.7273995, 17.2526369:pz:z=-0.99,-0.15,-0.01 
c= -1.9774411, -0.7273636, 19.7149109:pz:z=-0.98,-0.18,0.01 
c= -1.9848751, -0.7352170, 22.1864373:pz:z=-0.98,-0.18,-0.00 
c= -1.9621776, -0.7250862, 24.6450198:pz:z=-0.98,-0.18,0.00 
c= -1.9744417, -0.7304228, 27.1048730:pz:z=-0.98,-0.18,0.00 
c= -1.9683751, -0.7239107, 29.5715338:pz:z=-0.98,-0.18,-0.00 
c= -0.3556418, -2.0631068,  1.2322355:pz:z=-0.34,-0.94,-0.00 
c= -0.3537827, -2.0761602,  3.6915073:pz:z=-0.34,-0.94,0.00 
c= -0.3538359, -2.0731201,  6.1613705:pz:z=-0.34,-0.94,-0.00 
c= -0.3625607, -2.0632650,  8.6167546:pz:z=-0.34,-0.94,-0.00 
c= -0.3798537, -2.0990775, 11.0789480:pz:z=-0.34,-0.94,-0.01 
c= -0.3877092, -2.1089914, 13.5489607:pz:z=-0.36,-0.93,-0.01 
c= -0.3880835, -2.1092475, 16.0195301:pz:z=-0.36,-0.93,0.01 
c= -0.3801933, -2.0991963, 18.4904848:pz:z=-0.34,-0.94,0.01 
c= -0.3628294, -2.0628372, 20.9518501:pz:z=-0.34,-0.94,0.00 
c= -0.3541487, -2.0737963, 23.4078372:pz:z=-0.34,-0.94,0.00 
c= -0.3537533, -2.0754332, 25.8776389:pz:z=-0.34,-0.94,-0.00 
c= -0.3557835, -2.0634862, 28.3362036:pz:z=-0.34,-0.94,0.00 
c= -0.3559216, -2.0768312, 30.8013757:pz:z=-0.34,-0.94,-0.00 
end projections 
 
## KPOINTS ##

gamma_only = .true.
mp_grid    =  1 1 1

begin kpoints
0.0000  0.0000  0.0000
end kpoints
